(set-info :smt-lib-version 2.6)
(set-logic QF_FP)
(set-info :source |
Generated by: Chenqi Cui
Generated on: 2025-12-27
Generator: AutoSMTGen
Application: Generating SMT constraints with small solution spaces to make them challenging for SMT solvers
Target solver: Z3, CVC5, Bitwuzla
|)
(set-info :license "https://creativecommons.org/licenses/by/4.0/")
(set-info :category "industrial")
(set-info :status sat)
; benchmark generated from python API

(declare-fun x10 () (_ FloatingPoint 11 53))
(declare-fun x9 () (_ FloatingPoint 11 53))
(declare-fun x8 () (_ FloatingPoint 11 53))
(declare-fun x7 () (_ FloatingPoint 11 53))
(declare-fun x6 () (_ FloatingPoint 11 53))
(declare-fun x5 () (_ FloatingPoint 11 53))
(declare-fun x4 () (_ FloatingPoint 11 53))
(declare-fun x3 () (_ FloatingPoint 11 53))
(declare-fun x2 () (_ FloatingPoint 11 53))
(declare-fun x1 () (_ FloatingPoint 11 53))
(declare-fun x0 () (_ FloatingPoint 11 53))
(assert
 (let ((?x21 (fp.add roundNearestTiesToEven (fp.mul roundNearestTiesToEven (fp #b0 #b10000000000 #x9827af7531df0) x0) (fp.mul roundNearestTiesToEven (fp #b0 #b10000000101 #xafb67d42bd4ac) x1))))
 (let ((?x24 (fp.add roundNearestTiesToEven ?x21 (fp.mul roundNearestTiesToEven (fp #b0 #b10000000101 #x474791cc4afa3) x2))))
 (let ((?x27 (fp.add roundNearestTiesToEven ?x24 (fp.mul roundNearestTiesToEven (fp #b0 #b10000000011 #x415e515e8e33c) x3))))
 (let ((?x30 (fp.add roundNearestTiesToEven ?x27 (fp.mul roundNearestTiesToEven (fp #b1 #b01111111111 #x7a2c088b0fadb) x4))))
 (let ((?x33 (fp.add roundNearestTiesToEven ?x30 (fp.mul roundNearestTiesToEven (fp #b1 #b10000000010 #x3a7e41f720e24) x5))))
 (let ((?x36 (fp.add roundNearestTiesToEven ?x33 (fp.mul roundNearestTiesToEven (fp #b1 #b10000000010 #xe1a21caee2aa6) x6))))
 (let ((?x39 (fp.add roundNearestTiesToEven ?x36 (fp.mul roundNearestTiesToEven (fp #b0 #b10000000011 #x80efdf8c18af9) x7))))
 (let ((?x42 (fp.add roundNearestTiesToEven ?x39 (fp.mul roundNearestTiesToEven (fp #b1 #b10000000100 #xbcd252164bbbc) x8))))
 (let ((?x45 (fp.add roundNearestTiesToEven ?x42 (fp.mul roundNearestTiesToEven (fp #b1 #b10000000011 #x9f1366238a87b) x9))))
 (let ((?x48 (fp.add roundNearestTiesToEven ?x45 (fp.mul roundNearestTiesToEven (fp #b0 #b10000000001 #x1710ae4ba63b4) x10))))
 (fp.leq ?x48 (fp #b0 #b10000000101 #x40711b392bbd0)))))))))))))
(assert
 (let ((?x72 (fp.add roundNearestTiesToEven (fp.mul roundNearestTiesToEven (fp #b0 #b10000000100 #x0bfc00b7ec4da) x0) (fp.mul roundNearestTiesToEven (fp #b1 #b10000000101 #x3d45a396b95cf) x1))))
 (let ((?x75 (fp.add roundNearestTiesToEven ?x72 (fp.mul roundNearestTiesToEven (fp #b1 #b10000000010 #x07ff2cba74ee6) x2))))
 (let ((?x78 (fp.add roundNearestTiesToEven ?x75 (fp.mul roundNearestTiesToEven (fp #b1 #b10000000010 #xe48b5bd4de0c4) x3))))
 (let ((?x81 (fp.add roundNearestTiesToEven ?x78 (fp.mul roundNearestTiesToEven (fp #b0 #b10000000100 #x5c7be2e5bf0a1) x4))))
 (let ((?x84 (fp.add roundNearestTiesToEven ?x81 (fp.mul roundNearestTiesToEven (fp #b1 #b10000000101 #x2bd244eaaaf9e) x5))))
 (let ((?x87 (fp.add roundNearestTiesToEven ?x84 (fp.mul roundNearestTiesToEven (fp #b0 #b10000000100 #xd3c15d558bbe9) x6))))
 (let ((?x90 (fp.add roundNearestTiesToEven ?x87 (fp.mul roundNearestTiesToEven (fp #b1 #b10000000101 #x89e760440e00e) x7))))
 (let ((?x93 (fp.add roundNearestTiesToEven ?x90 (fp.mul roundNearestTiesToEven (fp #b0 #b10000000011 #xc73c6dd5f7422) x8))))
 (let ((?x96 (fp.add roundNearestTiesToEven ?x93 (fp.mul roundNearestTiesToEven (fp #b1 #b10000000101 #x67c21f802ee59) x9))))
 (let ((?x99 (fp.add roundNearestTiesToEven ?x96 (fp.mul roundNearestTiesToEven (fp #b0 #b10000000011 #xb0b0d97f4cc67) x10))))
 (fp.leq ?x99 (fp #b0 #b10000000101 #x0e8312090daae)))))))))))))
(assert
 (let ((?x106 (fp.add roundNearestTiesToEven (fp.mul roundNearestTiesToEven (fp #b0 #b10000000100 #x45d037c5a52d5) x0) (fp.mul roundNearestTiesToEven (fp #b1 #b10000000011 #x4095fe8de2820) x1))))
 (let ((?x109 (fp.add roundNearestTiesToEven ?x106 (fp.mul roundNearestTiesToEven (fp #b1 #b10000000101 #x2e219bae88771) x2))))
 (let ((?x112 (fp.add roundNearestTiesToEven ?x109 (fp.mul roundNearestTiesToEven (fp #b1 #b10000000100 #x8d46d7711d06e) x3))))
 (let ((?x115 (fp.add roundNearestTiesToEven ?x112 (fp.mul roundNearestTiesToEven (fp #b0 #b10000000011 #x3412d5e72344a) x4))))
 (let ((?x118 (fp.add roundNearestTiesToEven ?x115 (fp.mul roundNearestTiesToEven (fp #b1 #b10000000101 #x0058e4b8f06fd) x5))))
 (let ((?x121 (fp.add roundNearestTiesToEven ?x118 (fp.mul roundNearestTiesToEven (fp #b1 #b10000000100 #xeefa16e9e5f97) x6))))
 (let ((?x124 (fp.add roundNearestTiesToEven ?x121 (fp.mul roundNearestTiesToEven (fp #b1 #b10000000010 #xa95dc0d60ed2d) x7))))
 (let ((?x127 (fp.add roundNearestTiesToEven ?x124 (fp.mul roundNearestTiesToEven (fp #b1 #b10000000101 #x094350459be53) x8))))
 (let ((?x130 (fp.add roundNearestTiesToEven ?x127 (fp.mul roundNearestTiesToEven (fp #b1 #b10000000011 #xb1e7fb2806f2f) x9))))
 (let ((?x133 (fp.add roundNearestTiesToEven ?x130 (fp.mul roundNearestTiesToEven (fp #b0 #b10000000101 #x548771983fcf4) x10))))
 (fp.leq ?x133 (fp #b1 #b10000000100 #x5112cc07520fd)))))))))))))
(assert
 (let ((?x140 (fp.add roundNearestTiesToEven (fp.mul roundNearestTiesToEven (fp #b1 #b10000000101 #x2a3e9d7e39d3f) x0) (fp.mul roundNearestTiesToEven (fp #b0 #b10000000100 #xf029db341606e) x1))))
 (let ((?x143 (fp.add roundNearestTiesToEven ?x140 (fp.mul roundNearestTiesToEven (fp #b1 #b10000000100 #x2209fdec0bb34) x2))))
 (let ((?x146 (fp.add roundNearestTiesToEven ?x143 (fp.mul roundNearestTiesToEven (fp #b1 #b10000000011 #x2832e97a92f2e) x3))))
 (let ((?x149 (fp.add roundNearestTiesToEven ?x146 (fp.mul roundNearestTiesToEven (fp #b0 #b10000000100 #x3c6742adb5511) x4))))
 (let ((?x152 (fp.add roundNearestTiesToEven ?x149 (fp.mul roundNearestTiesToEven (fp #b1 #b10000000011 #x56e13737cfd3d) x5))))
 (let ((?x155 (fp.add roundNearestTiesToEven ?x152 (fp.mul roundNearestTiesToEven (fp #b1 #b10000000011 #xded61f3f00ffb) x6))))
 (let ((?x158 (fp.add roundNearestTiesToEven ?x155 (fp.mul roundNearestTiesToEven (fp #b1 #b10000000011 #xbaa41da54bbba) x7))))
 (let ((?x161 (fp.add roundNearestTiesToEven ?x158 (fp.mul roundNearestTiesToEven (fp #b0 #b10000000101 #x741733f502dd1) x8))))
 (let ((?x164 (fp.add roundNearestTiesToEven ?x161 (fp.mul roundNearestTiesToEven (fp #b1 #b10000000101 #x422cca7fab90e) x9))))
 (let ((?x167 (fp.add roundNearestTiesToEven ?x164 (fp.mul roundNearestTiesToEven (fp #b1 #b10000000010 #xfc5c0e4340d38) x10))))
 (fp.leq ?x167 (fp #b1 #b10000000101 #x8bcde6f99e71c)))))))))))))
(assert
 (let ((?x174 (fp.add roundNearestTiesToEven (fp.mul roundNearestTiesToEven (fp #b1 #b10000000001 #x8c1a753456167) x0) (fp.mul roundNearestTiesToEven (fp #b1 #b10000000011 #xa109c76e8dc99) x1))))
 (let ((?x177 (fp.add roundNearestTiesToEven ?x174 (fp.mul roundNearestTiesToEven (fp #b0 #b10000000011 #x650c37a3c3230) x2))))
 (let ((?x180 (fp.add roundNearestTiesToEven ?x177 (fp.mul roundNearestTiesToEven (fp #b1 #b10000000100 #x498864d342a38) x3))))
 (let ((?x183 (fp.add roundNearestTiesToEven ?x180 (fp.mul roundNearestTiesToEven (fp #b0 #b10000000101 #x1f2c462989eb9) x4))))
 (let ((?x186 (fp.add roundNearestTiesToEven ?x183 (fp.mul roundNearestTiesToEven (fp #b0 #b10000000101 #xb0401ec4307db) x5))))
 (let ((?x189 (fp.add roundNearestTiesToEven ?x186 (fp.mul roundNearestTiesToEven (fp #b0 #b10000000100 #x338fde3cae5ac) x6))))
 (let ((?x192 (fp.add roundNearestTiesToEven ?x189 (fp.mul roundNearestTiesToEven (fp #b1 #b10000000101 #x8eee68c309ce2) x7))))
 (let ((?x195 (fp.add roundNearestTiesToEven ?x192 (fp.mul roundNearestTiesToEven (fp #b0 #b10000000101 #x0327facac10e5) x8))))
 (let ((?x198 (fp.add roundNearestTiesToEven ?x195 (fp.mul roundNearestTiesToEven (fp #b1 #b10000000011 #x3e23eb03fcafa) x9))))
 (let ((?x201 (fp.add roundNearestTiesToEven ?x198 (fp.mul roundNearestTiesToEven (fp #b1 #b10000000100 #xa1b533af9fc2f) x10))))
 (fp.leq ?x201 (fp #b0 #b10000000010 #x7b488b4ffa849)))))))))))))
(assert
 (let ((?x208 (fp.add roundNearestTiesToEven (fp.mul roundNearestTiesToEven (fp #b0 #b10000000100 #x008d1109d8fad) x0) (fp.mul roundNearestTiesToEven (fp #b0 #b10000000101 #x2504e4fc0049e) x1))))
 (let ((?x211 (fp.add roundNearestTiesToEven ?x208 (fp.mul roundNearestTiesToEven (fp #b0 #b10000000000 #x3ff67967a44e1) x2))))
 (let ((?x214 (fp.add roundNearestTiesToEven ?x211 (fp.mul roundNearestTiesToEven (fp #b1 #b10000000100 #x4a3393afe12af) x3))))
 (let ((?x217 (fp.add roundNearestTiesToEven ?x214 (fp.mul roundNearestTiesToEven (fp #b1 #b10000000101 #x750d0ef0efbe5) x4))))
 (let ((?x220 (fp.add roundNearestTiesToEven ?x217 (fp.mul roundNearestTiesToEven (fp #b1 #b10000000100 #x329d86bcc9c62) x5))))
 (let ((?x223 (fp.add roundNearestTiesToEven ?x220 (fp.mul roundNearestTiesToEven (fp #b1 #b10000000101 #x11c76f765c549) x6))))
 (let ((?x226 (fp.add roundNearestTiesToEven ?x223 (fp.mul roundNearestTiesToEven (fp #b0 #b10000000100 #x6d108d948e83e) x7))))
 (let ((?x229 (fp.add roundNearestTiesToEven ?x226 (fp.mul roundNearestTiesToEven (fp #b0 #b10000000011 #x73b07948d6095) x8))))
 (let ((?x232 (fp.add roundNearestTiesToEven ?x229 (fp.mul roundNearestTiesToEven (fp #b1 #b10000000100 #x9e210070f3497) x9))))
 (let ((?x235 (fp.add roundNearestTiesToEven ?x232 (fp.mul roundNearestTiesToEven (fp #b1 #b10000000100 #x1c5f9f89eec33) x10))))
 (fp.leq ?x235 (fp #b0 #b10000000100 #x57f9f75128166)))))))))))))
(assert
 (let ((?x242 (fp.add roundNearestTiesToEven (fp.mul roundNearestTiesToEven (fp #b1 #b10000000101 #x24a9f9f2f34d8) x0) (fp.mul roundNearestTiesToEven (fp #b1 #b10000000011 #x26516903f0e96) x1))))
 (let ((?x245 (fp.add roundNearestTiesToEven ?x242 (fp.mul roundNearestTiesToEven (fp #b0 #b10000000011 #xa4d401e915742) x2))))
 (let ((?x248 (fp.add roundNearestTiesToEven ?x245 (fp.mul roundNearestTiesToEven (fp #b1 #b10000000100 #x92332b6e0b18c) x3))))
 (let ((?x251 (fp.add roundNearestTiesToEven ?x248 (fp.mul roundNearestTiesToEven (fp #b0 #b10000000101 #x1192dc2a363fb) x4))))
 (let ((?x254 (fp.add roundNearestTiesToEven ?x251 (fp.mul roundNearestTiesToEven (fp #b1 #b10000000101 #x5d60a9f32b2aa) x5))))
 (let ((?x257 (fp.add roundNearestTiesToEven ?x254 (fp.mul roundNearestTiesToEven (fp #b1 #b10000000100 #x4303ee836a5bd) x6))))
 (let ((?x260 (fp.add roundNearestTiesToEven ?x257 (fp.mul roundNearestTiesToEven (fp #b0 #b10000000101 #x408aa20ad6bdf) x7))))
 (let ((?x263 (fp.add roundNearestTiesToEven ?x260 (fp.mul roundNearestTiesToEven (fp #b0 #b10000000101 #x2d72e0d725353) x8))))
 (let ((?x266 (fp.add roundNearestTiesToEven ?x263 (fp.mul roundNearestTiesToEven (fp #b0 #b10000000101 #x0a4c7dbb47504) x9))))
 (let ((?x269 (fp.add roundNearestTiesToEven ?x266 (fp.mul roundNearestTiesToEven (fp #b0 #b10000000011 #x0aa0215db8201) x10))))
 (fp.leq ?x269 (fp #b1 #b10000000101 #x5aa1e0247c659)))))))))))))
(assert
 (let ((?x276 (fp.add roundNearestTiesToEven (fp.mul roundNearestTiesToEven (fp #b1 #b10000000100 #xf3115e996f908) x0) (fp.mul roundNearestTiesToEven (fp #b1 #b10000000101 #x50728e8db09f0) x1))))
 (let ((?x279 (fp.add roundNearestTiesToEven ?x276 (fp.mul roundNearestTiesToEven (fp #b1 #b10000000100 #x0eebdb7fcaaf4) x2))))
 (let ((?x282 (fp.add roundNearestTiesToEven ?x279 (fp.mul roundNearestTiesToEven (fp #b0 #b10000000011 #xcef6f0718459a) x3))))
 (let ((?x285 (fp.add roundNearestTiesToEven ?x282 (fp.mul roundNearestTiesToEven (fp #b1 #b10000000011 #x64555e8911017) x4))))
 (let ((?x288 (fp.add roundNearestTiesToEven ?x285 (fp.mul roundNearestTiesToEven (fp #b1 #b10000000011 #x574920ca5b4fd) x5))))
 (let ((?x291 (fp.add roundNearestTiesToEven ?x288 (fp.mul roundNearestTiesToEven (fp #b1 #b10000000100 #x65d1e02a90eec) x6))))
 (let ((?x294 (fp.add roundNearestTiesToEven ?x291 (fp.mul roundNearestTiesToEven (fp #b0 #b10000000101 #x4f070db3f2071) x7))))
 (let ((?x297 (fp.add roundNearestTiesToEven ?x294 (fp.mul roundNearestTiesToEven (fp #b1 #b10000000100 #xf5d58abe66435) x8))))
 (let ((?x300 (fp.add roundNearestTiesToEven ?x297 (fp.mul roundNearestTiesToEven (fp #b0 #b10000000100 #xd02c9dddb3138) x9))))
 (let ((?x303 (fp.add roundNearestTiesToEven ?x300 (fp.mul roundNearestTiesToEven (fp #b1 #b10000000101 #x0c3b49fdd1a5b) x10))))
 (fp.leq ?x303 (fp #b1 #b10000000101 #x177d124183e3a)))))))))))))
(assert
 (let ((?x310 (fp.add roundNearestTiesToEven (fp.mul roundNearestTiesToEven (fp #b0 #b10000000001 #x65db2aeb1356d) x0) (fp.mul roundNearestTiesToEven (fp #b0 #b10000000010 #xdc2e3a43c4592) x1))))
 (let ((?x313 (fp.add roundNearestTiesToEven ?x310 (fp.mul roundNearestTiesToEven (fp #b1 #b10000000101 #x01856d2b34521) x2))))
 (let ((?x316 (fp.add roundNearestTiesToEven ?x313 (fp.mul roundNearestTiesToEven (fp #b0 #b10000000101 #x760842f3cf6b9) x3))))
 (let ((?x319 (fp.add roundNearestTiesToEven ?x316 (fp.mul roundNearestTiesToEven (fp #b0 #b10000000011 #x18f2d23143b63) x4))))
 (let ((?x322 (fp.add roundNearestTiesToEven ?x319 (fp.mul roundNearestTiesToEven (fp #b1 #b10000000010 #x2077f3466304b) x5))))
 (let ((?x325 (fp.add roundNearestTiesToEven ?x322 (fp.mul roundNearestTiesToEven (fp #b0 #b10000000011 #x67bdc4eca2e5d) x6))))
 (let ((?x328 (fp.add roundNearestTiesToEven ?x325 (fp.mul roundNearestTiesToEven (fp #b1 #b10000000011 #x0139f76d49d79) x7))))
 (let ((?x331 (fp.add roundNearestTiesToEven ?x328 (fp.mul roundNearestTiesToEven (fp #b1 #b10000000100 #x3acdafd4e8b9e) x8))))
 (let ((?x334 (fp.add roundNearestTiesToEven ?x331 (fp.mul roundNearestTiesToEven (fp #b0 #b10000000100 #x7a77f6a2c4366) x9))))
 (let ((?x337 (fp.add roundNearestTiesToEven ?x334 (fp.mul roundNearestTiesToEven (fp #b1 #b10000000001 #x40032ede6ff56) x10))))
 (fp.leq ?x337 (fp #b0 #b10000000101 #x2209fa5696a76)))))))))))))
(assert
 (let ((?x344 (fp.add roundNearestTiesToEven (fp.mul roundNearestTiesToEven (fp #b1 #b10000000100 #x0ca01a3172555) x0) (fp.mul roundNearestTiesToEven (fp #b0 #b10000000100 #x493fc8f16b744) x1))))
 (let ((?x347 (fp.add roundNearestTiesToEven ?x344 (fp.mul roundNearestTiesToEven (fp #b0 #b10000000001 #xf0ed8822577b1) x2))))
 (let ((?x350 (fp.add roundNearestTiesToEven ?x347 (fp.mul roundNearestTiesToEven (fp #b0 #b10000000101 #x6f9b62285b625) x3))))
 (let ((?x353 (fp.add roundNearestTiesToEven ?x350 (fp.mul roundNearestTiesToEven (fp #b0 #b10000000101 #x63e34dc976f07) x4))))
 (let ((?x356 (fp.add roundNearestTiesToEven ?x353 (fp.mul roundNearestTiesToEven (fp #b1 #b10000000100 #x662c310d17398) x5))))
 (let ((?x359 (fp.add roundNearestTiesToEven ?x356 (fp.mul roundNearestTiesToEven (fp #b1 #b10000000100 #xcd69cb9cfe608) x6))))
 (let ((?x362 (fp.add roundNearestTiesToEven ?x359 (fp.mul roundNearestTiesToEven (fp #b1 #b10000000010 #x66ed53bcb7154) x7))))
 (let ((?x365 (fp.add roundNearestTiesToEven ?x362 (fp.mul roundNearestTiesToEven (fp #b0 #b10000000100 #xd3b5d028a2bc2) x8))))
 (let ((?x368 (fp.add roundNearestTiesToEven ?x365 (fp.mul roundNearestTiesToEven (fp #b0 #b10000000100 #xb3d9c452ebc3c) x9))))
 (let ((?x371 (fp.add roundNearestTiesToEven ?x368 (fp.mul roundNearestTiesToEven (fp #b0 #b10000000011 #x9ed57f5d5c419) x10))))
 (fp.leq ?x371 (fp #b0 #b10000000101 #x6a45cdaee1563)))))))))))))
(assert
 (let ((?x378 (fp.add roundNearestTiesToEven (fp.mul roundNearestTiesToEven (fp #b0 #b10000000101 #x85b4185025a02) x0) (fp.mul roundNearestTiesToEven (fp #b1 #b10000000101 #x2ad638336ae6c) x1))))
 (let ((?x381 (fp.add roundNearestTiesToEven ?x378 (fp.mul roundNearestTiesToEven (fp #b0 #b10000000100 #xa867b503fde21) x2))))
 (let ((?x384 (fp.add roundNearestTiesToEven ?x381 (fp.mul roundNearestTiesToEven (fp #b0 #b10000000011 #x996249f5f2903) x3))))
 (let ((?x387 (fp.add roundNearestTiesToEven ?x384 (fp.mul roundNearestTiesToEven (fp #b0 #b10000000100 #x73e19672e2330) x4))))
 (let ((?x390 (fp.add roundNearestTiesToEven ?x387 (fp.mul roundNearestTiesToEven (fp #b1 #b10000000000 #x70cff2dc076d1) x5))))
 (let ((?x393 (fp.add roundNearestTiesToEven ?x390 (fp.mul roundNearestTiesToEven (fp #b0 #b10000000101 #x7469680e8b345) x6))))
 (let ((?x396 (fp.add roundNearestTiesToEven ?x393 (fp.mul roundNearestTiesToEven (fp #b0 #b10000000101 #x7cf6422e20a3a) x7))))
 (let ((?x399 (fp.add roundNearestTiesToEven ?x396 (fp.mul roundNearestTiesToEven (fp #b0 #b10000000011 #x2226c59ff1d8c) x8))))
 (let ((?x402 (fp.add roundNearestTiesToEven ?x399 (fp.mul roundNearestTiesToEven (fp #b1 #b10000000101 #x00ed4f74f508d) x9))))
 (let ((?x405 (fp.add roundNearestTiesToEven ?x402 (fp.mul roundNearestTiesToEven (fp #b1 #b10000000101 #x839fddb56bd33) x10))))
 (fp.leq ?x405 (fp #b0 #b10000000011 #x4b1cee8719554)))))))))))))
(assert
 (let ((?x412 (fp.add roundNearestTiesToEven (fp.mul roundNearestTiesToEven (fp #b1 #b10000000101 #x2e3bdd7c0dcac) x0) (fp.mul roundNearestTiesToEven (fp #b0 #b10000000101 #x1646885f01c13) x1))))
 (let ((?x415 (fp.add roundNearestTiesToEven ?x412 (fp.mul roundNearestTiesToEven (fp #b1 #b10000000101 #x60f649dd0ce3e) x2))))
 (let ((?x418 (fp.add roundNearestTiesToEven ?x415 (fp.mul roundNearestTiesToEven (fp #b0 #b10000000101 #x5a3e5a9cae268) x3))))
 (let ((?x421 (fp.add roundNearestTiesToEven ?x418 (fp.mul roundNearestTiesToEven (fp #b0 #b10000000011 #x30dadbb9096dc) x4))))
 (let ((?x424 (fp.add roundNearestTiesToEven ?x421 (fp.mul roundNearestTiesToEven (fp #b1 #b10000000011 #xf2586446273a4) x5))))
 (let ((?x427 (fp.add roundNearestTiesToEven ?x424 (fp.mul roundNearestTiesToEven (fp #b1 #b01111111111 #x0a912c912ae85) x6))))
 (let ((?x430 (fp.add roundNearestTiesToEven ?x427 (fp.mul roundNearestTiesToEven (fp #b1 #b10000000100 #xe2ba8fcbfd1c4) x7))))
 (let ((?x433 (fp.add roundNearestTiesToEven ?x430 (fp.mul roundNearestTiesToEven (fp #b0 #b10000000011 #xcea5b5573f77f) x8))))
 (let ((?x436 (fp.add roundNearestTiesToEven ?x433 (fp.mul roundNearestTiesToEven (fp #b1 #b10000000101 #x410ed07f28e36) x9))))
 (let ((?x439 (fp.add roundNearestTiesToEven ?x436 (fp.mul roundNearestTiesToEven (fp #b0 #b10000000101 #x32612a317b4ea) x10))))
 (fp.leq ?x439 (fp #b0 #b10000000010 #x18c9db3850900)))))))))))))
(assert
 (let ((?x446 (fp.add roundNearestTiesToEven (fp.mul roundNearestTiesToEven (fp #b1 #b10000000010 #x9f0fcd02cb20a) x0) (fp.mul roundNearestTiesToEven (fp #b1 #b10000000011 #x728c068d7e517) x1))))
 (let ((?x449 (fp.add roundNearestTiesToEven ?x446 (fp.mul roundNearestTiesToEven (fp #b0 #b10000000001 #xb21d5b3d70cca) x2))))
 (let ((?x452 (fp.add roundNearestTiesToEven ?x449 (fp.mul roundNearestTiesToEven (fp #b1 #b10000000010 #x2fa6f0af46a63) x3))))
 (let ((?x455 (fp.add roundNearestTiesToEven ?x452 (fp.mul roundNearestTiesToEven (fp #b0 #b01111111101 #x2bae4561d8d6c) x4))))
 (let ((?x458 (fp.add roundNearestTiesToEven ?x455 (fp.mul roundNearestTiesToEven (fp #b1 #b10000000011 #xd0057473da031) x5))))
 (let ((?x461 (fp.add roundNearestTiesToEven ?x458 (fp.mul roundNearestTiesToEven (fp #b0 #b10000000101 #x138bd220053cc) x6))))
 (let ((?x464 (fp.add roundNearestTiesToEven ?x461 (fp.mul roundNearestTiesToEven (fp #b1 #b10000000010 #xfa3d76bb92728) x7))))
 (let ((?x467 (fp.add roundNearestTiesToEven ?x464 (fp.mul roundNearestTiesToEven (fp #b1 #b10000000100 #xf68da78238764) x8))))
 (let ((?x470 (fp.add roundNearestTiesToEven ?x467 (fp.mul roundNearestTiesToEven (fp #b0 #b10000000101 #x5e3d3b458f5f7) x9))))
 (let ((?x473 (fp.add roundNearestTiesToEven ?x470 (fp.mul roundNearestTiesToEven (fp #b0 #b10000000010 #x5d95081c07973) x10))))
 (fp.leq ?x473 (fp #b0 #b10000000010 #xa606734e422ae)))))))))))))
(assert
 (let ((?x480 (fp.add roundNearestTiesToEven (fp.mul roundNearestTiesToEven (fp #b1 #b10000000100 #x00048850cd766) x0) (fp.mul roundNearestTiesToEven (fp #b1 #b10000000100 #x27fb217207640) x1))))
 (let ((?x483 (fp.add roundNearestTiesToEven ?x480 (fp.mul roundNearestTiesToEven (fp #b1 #b10000000001 #xb0ee0539b2487) x2))))
 (let ((?x486 (fp.add roundNearestTiesToEven ?x483 (fp.mul roundNearestTiesToEven (fp #b1 #b10000000100 #xddc8c7f088bec) x3))))
 (let ((?x489 (fp.add roundNearestTiesToEven ?x486 (fp.mul roundNearestTiesToEven (fp #b0 #b10000000101 #x41c1b9601fa87) x4))))
 (let ((?x492 (fp.add roundNearestTiesToEven ?x489 (fp.mul roundNearestTiesToEven (fp #b0 #b10000000011 #x38e23615833a0) x5))))
 (let ((?x495 (fp.add roundNearestTiesToEven ?x492 (fp.mul roundNearestTiesToEven (fp #b0 #b10000000100 #x1560af04abb0e) x6))))
 (let ((?x498 (fp.add roundNearestTiesToEven ?x495 (fp.mul roundNearestTiesToEven (fp #b0 #b10000000101 #x14c4699a3ffe5) x7))))
 (let ((?x501 (fp.add roundNearestTiesToEven ?x498 (fp.mul roundNearestTiesToEven (fp #b1 #b10000000101 #x62adc9d961ca6) x8))))
 (let ((?x504 (fp.add roundNearestTiesToEven ?x501 (fp.mul roundNearestTiesToEven (fp #b1 #b10000000101 #x1ed1f2b5e9db3) x9))))
 (let ((?x507 (fp.add roundNearestTiesToEven ?x504 (fp.mul roundNearestTiesToEven (fp #b0 #b10000000101 #x43a061112eb81) x10))))
 (fp.leq ?x507 (fp #b0 #b10000000011 #xef1b1b527e123)))))))))))))
(assert
 (let ((?x514 (fp.add roundNearestTiesToEven (fp.mul roundNearestTiesToEven (fp #b0 #b10000000101 #x1b9a9c4a7ca50) x0) (fp.mul roundNearestTiesToEven (fp #b1 #b10000000100 #x980ace9208149) x1))))
(let ((?x517 (fp.add roundNearestTiesToEven ?x514 (fp.mul roundNearestTiesToEven (fp #b0 #b10000000101 #x5891de702a371) x2))))
(let ((?x520 (fp.add roundNearestTiesToEven ?x517 (fp.mul roundNearestTiesToEven (fp #b1 #b10000000011 #xfc8139601252f) x3))))
(let ((?x523 (fp.add roundNearestTiesToEven ?x520 (fp.mul roundNearestTiesToEven (fp #b1 #b10000000010 #x9c88b33edee7c) x4))))
(let ((?x526 (fp.add roundNearestTiesToEven ?x523 (fp.mul roundNearestTiesToEven (fp #b0 #b10000000101 #x05c1bf062d9d3) x5))))
(let ((?x529 (fp.add roundNearestTiesToEven ?x526 (fp.mul roundNearestTiesToEven (fp #b1 #b10000000101 #x067b445b93919) x6))))
(let ((?x532 (fp.add roundNearestTiesToEven ?x529 (fp.mul roundNearestTiesToEven (fp #b0 #b10000000101 #x248d39b349a70) x7))))
(let ((?x535 (fp.add roundNearestTiesToEven ?x532 (fp.mul roundNearestTiesToEven (fp #b0 #b10000000001 #xa3395577eac9b) x8))))
(let ((?x538 (fp.add roundNearestTiesToEven ?x535 (fp.mul roundNearestTiesToEven (fp #b0 #b10000000100 #xdda52f9aea771) x9))))
(let ((?x541 (fp.add roundNearestTiesToEven ?x538 (fp.mul roundNearestTiesToEven (fp #b1 #b10000000001 #xed88f65d18e12) x10))))
(fp.leq ?x541 (fp #b1 #b10000000100 #x3932c9efa5168)))))))))))))
(check-sat)
(exit)
